\Problem name: 

Minimize
OBJROW: -27 y_1_0 -32 y_1_1
Subject To
constr(0):  6 y_1_0 + y_1_1 <= 10
Bounds
 0 <= x_0 <= 1
 0 <= x_1 <= 1
 0 <= x_2 <= 1
 0 <= x_3 <= 1
 0 <= x_4 <= 1
 0 <= x_5 <= 1
 0 <= x_6 <= 1
 0 <= x_7 <= 1
 0 <= x_8 <= 1
 0 <= x_9 <= 1
 0 <= x_10 <= 1
 0 <= x_11 <= 1
 0 <= y_0_0 <= 1
 0 <= y_0_1 <= 1
 0 <= y_1_0 <= 1
 0 <= y_1_1 <= 1
 0 <= y_2_0 <= 1
 0 <= y_2_1 <= 1
 0 <= y_3_0 <= 1
 0 <= y_3_1 <= 1
 0 <= y_4_0 <= 1
 0 <= y_4_1 <= 1
 0 <= y_5_0 <= 1
 0 <= y_5_1 <= 1
 0 <= y_6_0 <= 1
 0 <= y_6_1 <= 1
 0 <= y_7_0 <= 1
 0 <= y_7_1 <= 1
 0 <= y_8_0 <= 1
 0 <= y_8_1 <= 1
 0 <= y_9_0 <= 1
 0 <= y_9_1 <= 1
 0 <= y_10_0 <= 1
 0 <= y_10_1 <= 1
 0 <= y_11_0 <= 1
 0 <= y_11_1 <= 1
Integers
x_0 x_1 x_2 x_3 x_4 x_5 x_6 x_7 x_8 x_9 
x_10 x_11 y_0_0 y_0_1 y_1_0 y_1_1 y_2_0 y_2_1 y_3_0 y_3_1 
y_4_0 y_4_1 y_5_0 y_5_1 y_6_0 y_6_1 y_7_0 y_7_1 y_8_0 y_8_1 
y_9_0 y_9_1 y_10_0 y_10_1 y_11_0 y_11_1 
End
